\* Envy Minimizing LP *\
Minimize
OBJ: envy_bound
Subject To
_C1: x_1_0 + x_2_0 + x_3_0 = 1
_C10: - envy_bound - 2 x_2_0 - 6 x_2_1 - 8 x_2_2 - x_2_3 - x_2_4 - 2 x_2_5
 + 2 x_3_0 + 6 x_3_1 + 8 x_3_2 + x_3_3 + x_3_4 + 2 x_3_5 <= 0
_C11: - envy_bound + 5 x_1_0 + 4 x_1_1 + 4 x_1_2 + 3 x_1_3 + 2 x_1_4 + 2 x_1_5
 - 5 x_3_0 - 4 x_3_1 - 4 x_3_2 - 3 x_3_3 - 2 x_3_4 - 2 x_3_5 <= 0
_C12: - envy_bound + 5 x_2_0 + 4 x_2_1 + 4 x_2_2 + 3 x_2_3 + 2 x_2_4 + 2 x_2_5
 - 5 x_3_0 - 4 x_3_1 - 4 x_3_2 - 3 x_3_3 - 2 x_3_4 - 2 x_3_5 <= 0
_C2: x_1_1 + x_2_1 + x_3_1 = 1
_C3: x_1_2 + x_2_2 + x_3_2 = 1
_C4: x_1_3 + x_2_3 + x_3_3 = 1
_C5: x_1_4 + x_2_4 + x_3_4 = 1
_C6: x_1_5 + x_2_5 + x_3_5 = 1
_C7: - envy_bound - x_1_0 - 2 x_1_1 - 5 x_1_2 - 3 x_1_3 - 7 x_1_4 - 2 x_1_5
 + x_2_0 + 2 x_2_1 + 5 x_2_2 + 3 x_2_3 + 7 x_2_4 + 2 x_2_5 <= 0
_C8: - envy_bound - x_1_0 - 2 x_1_1 - 5 x_1_2 - 3 x_1_3 - 7 x_1_4 - 2 x_1_5
 + x_3_0 + 2 x_3_1 + 5 x_3_2 + 3 x_3_3 + 7 x_3_4 + 2 x_3_5 <= 0
_C9: - envy_bound + 2 x_1_0 + 6 x_1_1 + 8 x_1_2 + x_1_3 + x_1_4 + 2 x_1_5
 - 2 x_2_0 - 6 x_2_1 - 8 x_2_2 - x_2_3 - x_2_4 - 2 x_2_5 <= 0
Binaries
x_1_0
x_1_1
x_1_2
x_1_3
x_1_4
x_1_5
x_2_0
x_2_1
x_2_2
x_2_3
x_2_4
x_2_5
x_3_0
x_3_1
x_3_2
x_3_3
x_3_4
x_3_5
End
